NAME : Golden_14
COMMENT : 1081.31
TYPE : CVRP
DIMENSION : 321
EDGE_WEIGHT_TYPE : EUC_2D
CAPACITY : 1000
NODE_COORD_SECTION
1 0 0
2 3 1
3 3 3
4 1 3
5 -1 3
6 -3 3
7 -3 1
8 -3 -1
9 -3 -3
10 -1 -3
11 1 -3
12 3 -3
13 3 -1
14 5 1
15 5 3
16 5 5
17 3 5
18 1 5
19 -1 5
20 -3 5
21 -5 5
22 -5 3
23 -5 1
24 -5 -1
25 -5 -3
26 -5 -5
27 -3 -5
28 -1 -5
29 1 -5
30 3 -5
31 5 -5
32 5 -3
33 5 -1
34 7 1
35 7 3
36 7 5
37 7 7
38 5 7
39 3 7
40 1 7
41 -1 7
42 -3 7
43 -5 7
44 -7 7
45 -7 5
46 -7 3
47 -7 1
48 -7 -1
49 -7 -3
50 -7 -5
51 -7 -7
52 -5 -7
53 -3 -7
54 -1 -7
55 1 -7
56 3 -7
57 5 -7
58 7 -7
59 7 -5
60 7 -3
61 7 -1
62 9 1
63 9 3
64 9 5
65 9 7
66 9 9
67 7 9
68 5 9
69 3 9
70 1 9
71 -1 9
72 -3 9
73 -5 9
74 -7 9
75 -9 9
76 -9 7
77 -9 5
78 -9 3
79 -9 1
80 -9 -1
81 -9 -3
82 -9 -5
83 -9 -7
84 -9 -9
85 -7 -9
86 -5 -9
87 -3 -9
88 -1 -9
89 1 -9
90 3 -9
91 5 -9
92 7 -9
93 9 -9
94 9 -7
95 9 -5
96 9 -3
97 9 -1
98 11 1
99 11 3
100 11 5
101 11 7
102 11 9
103 11 11
104 9 11
105 7 11
106 5 11
107 3 11
108 1 11
109 -1 11
110 -3 11
111 -5 11
112 -7 11
113 -9 11
114 -11 11
115 -11 9
116 -11 7
117 -11 5
118 -11 3
119 -11 1
120 -11 -1
121 -11 -3
122 -11 -5
123 -11 -7
124 -11 -9
125 -11 -11
126 -9 -11
127 -7 -11
128 -5 -11
129 -3 -11
130 -1 -11
131 1 -11
132 3 -11
133 5 -11
134 7 -11
135 9 -11
136 11 -11
137 11 -9
138 11 -7
139 11 -5
140 11 -3
141 11 -1
142 13 1
143 13 3
144 13 5
145 13 7
146 13 9
147 13 11
148 13 13
149 11 13
150 9 13
151 7 13
152 5 13
153 3 13
154 1 13
155 -1 13
156 -3 13
157 -5 13
158 -7 13
159 -9 13
160 -11 13
161 -13 13
162 -13 11
163 -13 9
164 -13 7
165 -13 5
166 -13 3
167 -13 1
168 -13 -1
169 -13 -3
170 -13 -5
171 -13 -7
172 -13 -9
173 -13 -11
174 -13 -13
175 -11 -13
176 -9 -13
177 -7 -13
178 -5 -13
179 -3 -13
180 -1 -13
181 1 -13
182 3 -13
183 5 -13
184 7 -13
185 9 -13
186 11 -13
187 13 -13
188 13 -11
189 13 -9
190 13 -7
191 13 -5
192 13 -3
193 13 -1
194 15 1
195 15 3
196 15 5
197 15 7
198 15 9
199 15 11
200 15 13
201 15 15
202 13 15
203 11 15
204 9 15
205 7 15
206 5 15
207 3 15
208 1 15
209 -1 15
210 -3 15
211 -5 15
212 -7 15
213 -9 15
214 -11 15
215 -13 15
216 -15 15
217 -15 13
218 -15 11
219 -15 9
220 -15 7
221 -15 5
222 -15 3
223 -15 1
224 -15 -1
225 -15 -3
226 -15 -5
227 -15 -7
228 -15 -9
229 -15 -11
230 -15 -13
231 -15 -15
232 -13 -15
233 -11 -15
234 -9 -15
235 -7 -15
236 -5 -15
237 -3 -15
238 -1 -15
239 1 -15
240 3 -15
241 5 -15
242 7 -15
243 9 -15
244 11 -15
245 13 -15
246 15 -15
247 15 -13
248 15 -11
249 15 -9
250 15 -7
251 15 -5
252 15 -3
253 15 -1
254 17 1
255 17 3
256 17 5
257 17 7
258 17 9
259 17 11
260 17 13
261 17 15
262 17 17
263 15 17
264 13 17
265 11 17
266 9 17
267 7 17
268 5 17
269 3 17
270 1 17
271 -1 17
272 -3 17
273 -5 17
274 -7 17
275 -9 17
276 -11 17
277 -13 17
278 -15 17
279 -17 17
280 -17 15
281 -17 13
282 -17 11
283 -17 9
284 -17 7
285 -17 5
286 -17 3
287 -17 1
288 -17 -1
289 -17 -3
290 -17 -5
291 -17 -7
292 -17 -9
293 -17 -11
294 -17 -13
295 -17 -15
296 -17 -17
297 -15 -17
298 -13 -17
299 -11 -17
300 -9 -17
301 -7 -17
302 -5 -17
303 -3 -17
304 -1 -17
305 1 -17
306 3 -17
307 5 -17
308 7 -17
309 9 -17
310 11 -17
311 13 -17
312 15 -17
313 17 -17
314 17 -15
315 17 -13
316 17 -11
317 17 -9
318 17 -7
319 17 -5
320 17 -3
321 17 -1
DEMAND_SECTION
1 0
2 300
3 300
4 300
5 300
6 300
7 300
8 300
9 300
10 300
11 300
12 300
13 300
14 180
15 180
16 180
17 180
18 180
19 180
20 180
21 180
22 180
23 180
24 180
25 180
26 180
27 180
28 180
29 180
30 180
31 180
32 180
33 180
34 128
35 128
36 128
37 128
38 128
39 128
40 128
41 128
42 128
43 128
44 128
45 128
46 128
47 128
48 128
49 128
50 128
51 128
52 128
53 128
54 128
55 128
56 128
57 128
58 128
59 128
60 128
61 128
62 100
63 100
64 100
65 100
66 100
67 100
68 100
69 100
70 100
71 100
72 100
73 100
74 100
75 100
76 100
77 100
78 100
79 100
80 100
81 100
82 100
83 100
84 100
85 100
86 100
87 100
88 100
89 100
90 100
91 100
92 100
93 100
94 100
95 100
96 100
97 100
98 81
99 81
100 81
101 81
102 81
103 81
104 81
105 81
106 81
107 81
108 81
109 81
110 81
111 81
112 81
113 81
114 81
115 81
116 81
117 81
118 81
119 81
120 81
121 81
122 81
123 81
124 81
125 81
126 81
127 81
128 81
129 81
130 81
131 81
132 81
133 81
134 81
135 81
136 81
137 81
138 81
139 81
140 81
141 81
142 69
143 69
144 69
145 69
146 69
147 69
148 69
149 69
150 69
151 69
152 69
153 69
154 69
155 69
156 69
157 69
158 69
159 69
160 69
161 69
162 69
163 69
164 69
165 69
166 69
167 69
168 69
169 69
170 69
171 69
172 69
173 69
174 69
175 69
176 69
177 69
178 69
179 69
180 69
181 69
182 69
183 69
184 69
185 69
186 69
187 69
188 69
189 69
190 69
191 69
192 69
193 69
194 60
195 60
196 60
197 60
198 60
199 60
200 60
201 60
202 60
203 60
204 60
205 60
206 60
207 60
208 60
209 60
210 60
211 60
212 60
213 60
214 60
215 60
216 60
217 60
218 60
219 60
220 60
221 60
222 60
223 60
224 60
225 60
226 60
227 60
228 60
229 60
230 60
231 60
232 60
233 60
234 60
235 60
236 60
237 60
238 60
239 60
240 60
241 60
242 60
243 60
244 60
245 60
246 60
247 60
248 60
249 60
250 60
251 60
252 60
253 60
254 52
255 52
256 52
257 52
258 52
259 52
260 52
261 52
262 52
263 52
264 52
265 52
266 52
267 52
268 52
269 52
270 52
271 52
272 52
273 52
274 52
275 52
276 52
277 52
278 52
279 52
280 52
281 52
282 52
283 52
284 52
285 52
286 52
287 52
288 52
289 52
290 52
291 52
292 52
293 52
294 52
295 52
296 52
297 52
298 52
299 52
300 52
301 52
302 52
303 52
304 52
305 52
306 52
307 52
308 52
309 52
310 52
311 52
312 52
313 52
314 52
315 52
316 52
317 52
318 52
319 52
320 52
321 52
DEPOT_SECTION
1
-1
EOF
